proyfinal/src/viki/013/andrea/andrea-localstore/experimentInOfficeAgust.take6/worker_3/1be2022b-77ed-4eb9-b862-c283c8c5fba7.als.cnf.out
Reading from standard input... Use '--help' for help.
============================[ Problem Statistics ]=============================
|                                                                             |
|  Number of variables:         87638                                         |
|  Number of clauses:          161767                                         |
|  Parse time:                   0.03 s                                       |
|                                                                             |
============================[ Search Statistics ]==============================
| Conflicts |          ORIGINAL         |          LEARNT          | Progress |
|           |    Vars  Clauses Literals |    Limit  Clauses Lit/Cl |          |
===============================================================================
|       100 |   62002   103764   259336 |    38046      100     32 | 29.252 % |
|       250 |   61982   103686   259146 |    41851      249     49 | 29.275 % |
|       475 |   61982   103686   259146 |    46036      474     51 | 29.275 % |
|       812 |   43489   103680   259134 |    50640      808     78 | 50.377 % |
|      1318 |   43488    50248   128150 |    55704     1249     60 | 50.378 % |
|      2077 |   43488    50204   128060 |    61274     2006     47 | 50.378 % |
===============================================================================
restarts              : 15
conflicts             : 3162           (8813 /sec)
decisions             : 11847          (0.00 % random) (33020 /sec)
propagations          : 4963027        (13833065 /sec)
conflict literals     : 126638         (39.99 % deleted)
Memory used           : 25.45 MB
CPU time              : 0.35878 s

UNSATISFIABLE
